3	25
55	590	854	357	789	280	364	413	649	719	69	282	144	146	736	895	524	56	439	520	275	747	766	96	726	
480	149	692	902	939	572	259	235	664	883	20	71	314	98	12	202	439	137	862	720	733	120	513	752	657	
1905	1905	1905	
